Maximize
x1 + x2 + x3 + x4 + x5 + x6 + x7 + x8
 + x9 + x10 + x11 + x12 + x13 + x14 + x15 + x16
 + x17 + x18 + x19 + x20 + x21 + x22 + x23 + x24
 + x25 + x26 + x27 + x28 + x29 + x30 + x31 + x32
 + x33 + x34 + x35 + x36 + x37 + x38 + x39 + x40
 + x41 + x42 + x43 + x44 + x45 + x46 + x47 + x48
 + x49 + x50 + x51 + x52 + x53 + x54 + x55 + x56
 + x57 + x58 + x59 + x60 + x61 + x62 + x63 + x64
 + x65 + x66 + x67 + x68 + x69 + x70 + x71 + x72
 + x73 + x74 + x75 + x76 + x77 + x78 + x79 + x80
 + x81 + x82 + x83 + x84 + x85 + x86 + x87 + x88
 + x89 + x90 + x91 + x92 + x93 + x94 + x95 + x96
 + x97 + x98 + x99 + x100 + x101 + x102 + x103 + x104
 + x105 + x106 + x107 + x108 + x109 + x110 + x111 + x112
 + x113 + x114 + x115 + x116 + x117 + x118 + x119 + x120
 + x121 + x122 + x123 + x124 + x125
subject to
c1: x1 + x12 <= 1
c2: x1 + x37 + x95 <= 1
c3: x1 + x42 <= 1
c4: x1 + x53 <= 1
c5: x1 + x56 + x106 <= 1
c6: x1 + x67 + x87 <= 1
c7: x1 + x108 <= 1
c8: x1 + x109 + x118 <= 1
c9: x2 + x3 + x56 <= 1
c10: x2 + x13 <= 1
c11: x2 + x15 + x75 <= 1
c12: x2 + x20 <= 1
c13: x2 + x53 + x55 <= 1
c14: x2 + x66 + x90 <= 1
c15: x2 + x120 + x55 <= 1
c16: x3 + x16 + x89 <= 1
c17: x3 + x22 + x31 <= 1
c18: x3 + x34 + x42 <= 1
c19: x3 + x35 + x94 + x115 <= 1
c20: x3 + x57 <= 1
c21: x3 + x65 <= 1
c22: x3 + x80 + x16 <= 1
c23: x3 + x83 + x42 <= 1
c24: x3 + x108 + x94 + x115 <= 1
c25: x3 + x117 <= 1
c26: x4 + x22 + x31 <= 1
c27: x4 + x25 <= 1
c28: x4 + x34 <= 1
c29: x4 + x48 <= 1
c30: x4 + x68 <= 1
c31: x4 + x69 + x83 <= 1
c32: x4 + x76 + x83 <= 1
c33: x4 + x77 <= 1
c34: x4 + x85 + x69 <= 1
c35: x4 + x93 <= 1
c36: x5 + x20 + x108 <= 1
c37: x5 + x22 + x23 <= 1
c38: x5 + x27 + x74 <= 1
c39: x5 + x28 + x38 + x108 <= 1
c40: x5 + x33 + x108 <= 1
c41: x5 + x84 <= 1
c42: x5 + x95 + x23 <= 1
c43: x5 + x97 <= 1
c44: x6 + x14 <= 1
c45: x6 + x15 <= 1
c46: x6 + x31 <= 1
c47: x6 + x65 <= 1
c48: x6 + x70 <= 1
c49: x6 + x78 + x105 <= 1
c50: x6 + x83 + x125 <= 1
c51: x6 + x104 + x105 <= 1
c52: x6 + x114 <= 1
c53: x7 + x14 + x108 <= 1
c54: x7 + x30 + x108 <= 1
c55: x7 + x58 + x108 <= 1
c56: x7 + x78 <= 1
c57: x7 + x81 <= 1
c58: x7 + x86 <= 1
c59: x8 + x12 <= 1
c60: x8 + x40 <= 1
c61: x8 + x44 <= 1
c62: x8 + x58 <= 1
c63: x8 + x110 <= 1
c64: x8 + x113 <= 1
c65: x8 + x121 <= 1
c66: x9 + x12 + x88 <= 1
c67: x9 + x26 <= 1
c68: x9 + x32 + x108 <= 1
c69: x9 + x46 <= 1
c70: x9 + x64 + x88 <= 1
c71: x9 + x69 + x116 <= 1
c72: x9 + x74 <= 1
c73: x9 + x124 <= 1
c74: x10 + x20 <= 1
c75: x10 + x29 <= 1
c76: x10 + x33 + x71 <= 1
c77: x10 + x34 + x118 <= 1
c78: x10 + x54 <= 1
c79: x10 + x83 <= 1
c80: x10 + x95 <= 1
c81: x10 + x121 <= 1
c82: x11 + x15 + x51 <= 1
c83: x11 + x26 + x97 <= 1
c84: x11 + x59 <= 1
c85: x11 + x86 <= 1
c86: x11 + x112 <= 1
c87: x11 + x124 + x15 <= 1
c88: x12 + x15 <= 1
c89: x12 + x33 + x89 <= 1
c90: x12 + x43 + x92 <= 1
c91: x12 + x68 + x88 <= 1
c92: x12 + x76 + x89 <= 1
c93: x12 + x78 + x68 <= 1
c94: x12 + x84 <= 1
c95: x12 + x102 <= 1
c96: x12 + x104 <= 1
c97: x12 + x114 <= 1
c98: x13 + x14 + x71 <= 1
c99: x13 + x48 <= 1
c100: x13 + x65 + x121 <= 1
c101: x13 + x78 + x121 <= 1
c102: x13 + x84 <= 1
c103: x13 + x88 + x71 <= 1
c104: x13 + x102 <= 1
c105: x13 + x108 + x14 <= 1
c106: x13 + x124 <= 1
c107: x14 + x28 + x64 <= 1
c108: x14 + x35 <= 1
c109: x14 + x42 + x63 <= 1
c110: x14 + x73 + x93 <= 1
c111: x14 + x87 + x93 <= 1
c112: x14 + x89 <= 1
c113: x14 + x106 <= 1
c114: x15 + x32 + x75 <= 1
c115: x15 + x38 + x51 <= 1
c116: x15 + x57 <= 1
c117: x15 + x67 + x94 <= 1
c118: x15 + x71 + x75 <= 1
c119: x15 + x77 <= 1
c120: x15 + x79 + x75 <= 1
c121: x15 + x96 + x94 <= 1
c122: x15 + x109 + x96 <= 1
c123: x15 + x119 + x96 <= 1
c124: x16 + x21 + x25 <= 1
c125: x16 + x23 + x25 <= 1
c126: x16 + x29 + x76 + x53 <= 1
c127: x16 + x40 + x112 <= 1
c128: x16 + x44 + x53 <= 1
c129: x16 + x64 + x25 <= 1
c130: x16 + x68 + x89 <= 1
c131: x16 + x72 + x103 <= 1
c132: x16 + x74 + x40 <= 1
c133: x16 + x101 + x112 <= 1
c134: x17 + x30 + x50 <= 1
c135: x17 + x33 + x116 <= 1
c136: x17 + x42 + x83 <= 1
c137: x17 + x43 <= 1
c138: x17 + x56 <= 1
c139: x17 + x60 <= 1
c140: x17 + x64 + x88 <= 1
c141: x17 + x68 + x88 <= 1
c142: x17 + x72 <= 1
c143: x17 + x97 + x116 <= 1
c144: x17 + x102 + x50 <= 1
c145: x17 + x111 <= 1
c146: x18 + x27 + x62 <= 1
c147: x18 + x30 + x113 <= 1
c148: x18 + x52 + x102 <= 1
c149: x18 + x57 + x27 <= 1
c150: x18 + x65 <= 1
c151: x18 + x104 <= 1
c152: x19 + x20 + x113 <= 1
c153: x19 + x60 <= 1
c154: x19 + x61 + x83 <= 1
c155: x19 + x106 + x83 <= 1
c156: x19 + x124 <= 1
c157: x20 + x35 + x94 <= 1
c158: x20 + x70 + x107 <= 1
c159: x20 + x74 + x5 <= 1
c160: x20 + x91 + x113 <= 1
c161: x20 + x100 <= 1
c162: x21 + x24 + x62 <= 1
c163: x21 + x27 + x62 <= 1
c164: x21 + x30 + x71 <= 1
c165: x21 + x38 + x25 <= 1
c166: x21 + x57 + x27 <= 1
c167: x21 + x66 <= 1
c168: x21 + x78 + x24 <= 1
c169: x21 + x85 <= 1
c170: x21 + x86 <= 1
c171: x21 + x102 + x110 <= 1
c172: x22 + x37 <= 1
c173: x22 + x61 <= 1
c174: x22 + x91 <= 1
c175: x22 + x106 + x121 <= 1
c176: x23 + x32 <= 1
c177: x23 + x41 + x102 <= 1
c178: x23 + x50 + x107 <= 1
c179: x23 + x69 + x100 <= 1
c180: x23 + x70 + x41 <= 1
c181: x24 + x83 + x91 <= 1
c182: x24 + x97 + x62 <= 1
c183: x24 + x111 <= 1
c184: x24 + x114 <= 1
c185: x24 + x120 + x91 <= 1
c186: x25 + x28 + x64 <= 1
c187: x25 + x35 <= 1
c188: x25 + x42 + x63 <= 1
c189: x25 + x78 + x21 <= 1
c190: x26 + x27 <= 1
c191: x26 + x37 + x95 + x98 <= 1
c192: x26 + x52 + x97 <= 1
c193: x26 + x56 + x113 <= 1
c194: x26 + x72 + x52 <= 1
c195: x26 + x79 <= 1
c196: x26 + x83 + x113 <= 1
c197: x27 + x31 <= 1
c198: x27 + x44 + x57 <= 1
c199: x27 + x50 + x93 <= 1
c200: x27 + x116 + x93 <= 1
c201: x27 + x125 <= 1
c202: x28 + x31 + x76 <= 1
c203: x28 + x48 <= 1
c204: x28 + x72 + x76 <= 1
c205: x28 + x79 + x108 <= 1
c206: x28 + x85 + x64 <= 1
c207: x28 + x96 <= 1
c208: x28 + x112 + x38 <= 1
c209: x29 + x46 <= 1
c210: x29 + x73 <= 1
c211: x29 + x78 <= 1
c212: x29 + x106 <= 1
c213: x30 + x44 <= 1
c214: x30 + x54 <= 1
c215: x30 + x68 + x113 <= 1
c216: x31 + x73 <= 1
c217: x31 + x87 <= 1
c218: x31 + x89 + x76 <= 1
c219: x31 + x94 + x3 <= 1
c220: x31 + x111 <= 1
c221: x32 + x34 + x75 <= 1
c222: x32 + x51 + x63 <= 1
c223: x32 + x62 + x117 <= 1
c224: x32 + x67 + x15 <= 1
c225: x32 + x68 + x120 <= 1
c226: x32 + x82 <= 1
c227: x33 + x36 + x91 <= 1
c228: x33 + x77 + x107 <= 1
c229: x33 + x86 <= 1
c230: x33 + x94 + x115 + x108 <= 1
c231: x33 + x124 + x107 <= 1
c232: x34 + x58 <= 1
c233: x34 + x62 + x32 <= 1
c234: x34 + x64 <= 1
c235: x35 + x61 + x120 <= 1
c236: x35 + x76 <= 1
c237: x35 + x79 + x61 <= 1
c238: x35 + x81 <= 1
c239: x35 + x90 <= 1
c240: x36 + x50 + x88 <= 1
c241: x36 + x51 + x73 <= 1
c242: x36 + x56 <= 1
c243: x36 + x60 <= 1
c244: x36 + x61 + x79 <= 1
c245: x36 + x71 + x75 + x103 <= 1
c246: x36 + x78 + x90 + x105 <= 1
c247: x36 + x81 + x51 <= 1
c248: x36 + x85 + x109 <= 1
c249: x36 + x97 + x90 + x75 <= 1
c250: x36 + x100 + x71 <= 1
c251: x36 + x122 + x73 + x90 <= 1
c252: x37 + x40 + x75 <= 1
c253: x37 + x41 <= 1
c254: x37 + x43 <= 1
c255: x37 + x48 + x95 <= 1
c256: x37 + x88 <= 1
c257: x37 + x103 + x75 <= 1
c258: x37 + x110 <= 1
c259: x38 + x46 + x105 <= 1
c260: x38 + x76 + x28 <= 1
c261: x38 + x98 <= 1
c262: x38 + x99 + x46 <= 1
c263: x38 + x104 + x105 <= 1
c264: x38 + x113 + x51 <= 1
c265: x39 + x56 + x84 <= 1
c266: x39 + x59 + x122 <= 1
c267: x39 + x76 + x117 <= 1
c268: x39 + x77 <= 1
c269: x39 + x82 <= 1
c270: x39 + x106 + x122 <= 1
c271: x40 + x73 <= 1
c272: x40 + x85 + x112 <= 1
c273: x41 + x49 <= 1
c274: x41 + x55 + x116 <= 1
c275: x41 + x108 <= 1
c276: x41 + x111 <= 1
c277: x41 + x124 <= 1
c278: x41 + x125 <= 1
c279: x42 + x46 + x83 <= 1
c280: x42 + x51 + x81 <= 1
c281: x42 + x61 + x83 <= 1
c282: x42 + x82 <= 1
c283: x42 + x107 <= 1
c284: x42 + x113 + x123 <= 1
c285: x42 + x115 + x63 <= 1
c286: x42 + x122 <= 1
c287: x43 + x65 + x121 <= 1
c288: x43 + x70 <= 1
c289: x43 + x71 <= 1
c290: x43 + x73 + x93 <= 1
c291: x43 + x113 <= 1
c292: x43 + x119 <= 1
c293: x43 + x125 <= 1
c294: x44 + x56 <= 1
c295: x44 + x90 + x97 <= 1
c296: x44 + x109 <= 1
c297: x44 + x119 <= 1
c298: x44 + x124 <= 1
c299: x45 + x76 <= 1
c300: x45 + x81 + x112 <= 1
c301: x45 + x93 <= 1
c302: x45 + x94 <= 1
c303: x45 + x111 <= 1
c304: x46 + x47 + x83 <= 1
c305: x46 + x50 <= 1
c306: x46 + x52 <= 1
c307: x46 + x121 <= 1
c308: x47 + x61 + x83 <= 1
c309: x47 + x62 <= 1
c310: x47 + x82 + x99 <= 1
c311: x47 + x84 <= 1
c312: x47 + x100 + x83 <= 1
c313: x47 + x103 + x83 <= 1
c314: x48 + x51 + x95 <= 1
c315: x48 + x52 <= 1
c316: x48 + x55 + x95 <= 1
c317: x48 + x57 + x103 <= 1
c318: x48 + x109 + x103 <= 1
c319: x49 + x57 <= 1
c320: x49 + x59 + x100 <= 1
c321: x49 + x69 + x100 <= 1
c322: x49 + x87 <= 1
c323: x49 + x105 <= 1
c324: x49 + x109 <= 1
c325: x50 + x58 + x107 <= 1
c326: x50 + x76 + x89 <= 1
c327: x50 + x79 + x36 <= 1
c328: x50 + x82 + x89 <= 1
c329: x50 + x101 <= 1
c330: x51 + x69 + x103 <= 1
c331: x51 + x74 + x63 <= 1
c332: x51 + x89 <= 1
c333: x51 + x102 + x63 <= 1
c334: x51 + x120 + x102 <= 1
c335: x51 + x125 + x95 <= 1
c336: x52 + x61 + x116 <= 1
c337: x52 + x71 <= 1
c338: x52 + x92 + x97 <= 1
c339: x53 + x57 + x44 <= 1
c340: x53 + x81 + x55 <= 1
c341: x53 + x84 + x81 <= 1
c342: x53 + x91 <= 1
c343: x53 + x121 <= 1
c344: x53 + x122 + x84 <= 1
c345: x54 + x91 <= 1
c346: x54 + x94 <= 1
c347: x54 + x119 <= 1
c348: x55 + x56 + x2 <= 1
c349: x55 + x63 + x95 <= 1
c350: x55 + x74 + x63 <= 1
c351: x55 + x83 + x100 <= 1
c352: x55 + x87 + x81 <= 1
c353: x55 + x119 + x95 <= 1
c354: x56 + x66 + x2 <= 1
c355: x56 + x93 <= 1
c356: x57 + x74 + x27 <= 1
c357: x57 + x118 <= 1
c358: x58 + x80 <= 1
c359: x58 + x90 + x105 + x122 <= 1
c360: x58 + x98 <= 1
c361: x58 + x124 + x107 <= 1
c362: x59 + x65 <= 1
c363: x59 + x73 + x122 <= 1
c364: x59 + x75 <= 1
c365: x59 + x98 <= 1
c366: x59 + x107 <= 1
c367: x60 + x92 <= 1
c368: x60 + x98 <= 1
c369: x61 + x66 + x95 <= 1
c370: x61 + x80 <= 1
c371: x62 + x68 + x88 <= 1
c372: x62 + x93 + x27 <= 1
c373: x62 + x112 <= 1
c374: x63 + x77 + x90 <= 1
c375: x63 + x79 <= 1
c376: x63 + x88 <= 1
c377: x63 + x101 <= 1
c378: x64 + x80 + x16 <= 1
c379: x64 + x84 <= 1
c380: x64 + x86 + x88 <= 1
c381: x64 + x93 + x14 <= 1
c382: x64 + x100 <= 1
c383: x64 + x110 <= 1
c384: x64 + x113 <= 1
c385: x64 + x114 <= 1
c386: x64 + x115 <= 1
c387: x65 + x72 <= 1
c388: x65 + x81 <= 1
c389: x65 + x111 <= 1
c390: x66 + x74 <= 1
c391: x66 + x92 + x97 <= 1
c392: x66 + x100 <= 1
c393: x66 + x108 + x115 <= 1
c394: x66 + x123 <= 1
c395: x67 + x107 + x124 <= 1
c396: x67 + x115 + x94 <= 1
c397: x68 + x73 <= 1
c398: x68 + x81 <= 1
c399: x68 + x105 + x78 <= 1
c400: x68 + x106 <= 1
c401: x69 + x94 <= 1
c402: x69 + x121 <= 1
c403: x70 + x84 + x107 <= 1
c404: x70 + x94 + x20 <= 1
c405: x70 + x112 <= 1
c406: x72 + x75 + x76 <= 1
c407: x72 + x101 + x16 <= 1
c408: x72 + x122 <= 1
c409: x72 + x123 <= 1
c410: x73 + x79 + x108 <= 1
c411: x73 + x82 <= 1
c412: x73 + x86 + x117 <= 1
c413: x73 + x95 + x122 <= 1
c414: x73 + x96 <= 1
c415: x75 + x81 + x112 <= 1
c416: x75 + x108 + x79 <= 1
c417: x75 + x113 <= 1
c418: x75 + x118 + x97 <= 1
c419: x76 + x80 + x16 <= 1
c420: x76 + x110 <= 1
c421: x76 + x119 + x117 <= 1
c422: x77 + x100 <= 1
c423: x77 + x105 + x90 <= 1
c424: x77 + x120 <= 1
c425: x78 + x112 + x105 <= 1
c426: x78 + x119 <= 1
c427: x79 + x118 + x75 <= 1
c428: x80 + x92 <= 1
c429: x81 + x114 <= 1
c430: x81 + x124 + x87 <= 1
c431: x82 + x94 + x97 <= 1
c432: x83 + x86 <= 1
c433: x84 + x90 + x122 <= 1
c434: x85 + x89 + x112 <= 1
c435: x85 + x124 <= 1
c436: x86 + x120 + x88 <= 1
c437: x86 + x123 <= 1
c438: x87 + x88 + x116 <= 1
c439: x87 + x92 + x88 <= 1
c440: x87 + x96 <= 1
c441: x87 + x103 <= 1
c442: x88 + x121 + x13 <= 1
c443: x89 + x96 <= 1
c444: x89 + x121 <= 1
c445: x90 + x91 + x36 <= 1
c446: x90 + x93 + x116 <= 1
c447: x90 + x110 <= 1
c448: x91 + x123 + x113 <= 1
c449: x92 + x120 + x88 <= 1
c450: x93 + x109 <= 1
c451: x94 + x106 <= 1
c452: x94 + x123 <= 1
c453: x95 + x99 <= 1
c454: x96 + x100 <= 1
c455: x96 + x101 <= 1
c456: x96 + x115 + x119 <= 1
c457: x97 + x117 + x118 <= 1
c458: x98 + x123 <= 1
c459: x99 + x102 <= 1
c460: x99 + x109 <= 1
c461: x100 + x118 <= 1
c462: x100 + x125 + x83 <= 1
c463: x101 + x104 <= 1
c464: x102 + x123 <= 1
c465: x103 + x105 + x36 <= 1
c466: x103 + x106 + x83 <= 1
c467: x105 + x117 <= 1
c468: x107 + x118 <= 1
c469: x113 + x117 <= 1
c470: x116 + x118 + x97 <= 1
c471: x116 + x123 <= 1
END